row=9;
column=9;
Board=[|0,0,0,0,0,0,0,0,8|0,0,2,6,0,1,0,0,0|0,9,0,0,0,0,2,4,0|0,1,8,3,7,0,0,5,0|0,5,0,9,0,0,0,1,2|0,0,5,0,9,0,0,0,0|0,0,0,0,0,0,5,2,0|5,0,0,0,0,2,0,0,0|0,0,0,2,6,5,0,8,9|];
Region=[|1,1,1,1,2,2,2,2,3|1,1,1,2,2,3,3,3,3|1,1,4,2,2,3,3,3,3|4,4,4,2,5,5,6,6,6|4,4,4,5,5,6,6,6,6|4,5,5,5,8,5,5,6,6|4,8,8,8,8,8,9,9,9|7,7,7,7,8,8,9,9,9|7,7,7,7,7,8,9,9,9|];
horizontal=[|1,0,1,0,0,0,0,1|1,0,0,0,0,0,0,0|0,0,0,0,1,0,0,0|1,0,0,0,0,0,0,1|1,1,0,0,0,1,0,1|0,0,0,0,1,0,0,1|0,1,0,0,0,0,0,1|0,1,0,0,1,0,0,0|1,0,1,0,1,0,1,1|];
vertical=[|0,0,0,1,0,0,0,0,0|0,0,1,0,1,0,1,0,0|1,0,0,0,0,0,0,1,1|0,0,0,0,0,0,1,0,0|1,0,1,0,0,1,0,0,0|0,0,0,0,1,0,1,1,0|0,0,0,0,0,1,1,0,0|1,0,0,0,0,0,0,0,0|];
